(benchmark gametime
:status unknown
:logic QF_AUFBV
:extrafuns ((gtINDEX71  BitVec[32]))
:extrafuns ((gtFIELD__bitsForTID0__gtAGG____anonstruct_D_Work_4  Array[32:32]))
:extrafuns ((gtINDEX72  BitVec[32]))
:extrafuns ((gtAGG__rtDWork  BitVec[32]))
:extrafuns ((gtINDEX69  BitVec[32]))
:extrafuns ((gtINDEX70  BitVec[32]))
:extrafuns ((gtINDEX67  BitVec[32]))
:extrafuns ((gtINDEX68  BitVec[32]))
:extrafuns ((gtINDEX65  BitVec[32]))
:extrafuns ((gtINDEX66  BitVec[32]))
:extrafuns ((gtINDEX64  BitVec[32]))
:extrafuns ((gtINDEX63  BitVec[32]))
:extrafuns ((gtINDEX62  BitVec[32]))
:extrafuns ((gtINDEX61  BitVec[32]))
:extrafuns ((gtINDEX59  BitVec[32]))
:extrafuns ((gtINDEX60  BitVec[32]))
:extrafuns ((gtINDEX57  BitVec[32]))
:extrafuns ((gtINDEX58  BitVec[32]))
:extrafuns ((gtINDEX55  BitVec[32]))
:extrafuns ((gtINDEX56  BitVec[32]))
:extrafuns ((gtINDEX53  BitVec[32]))
:extrafuns ((gtINDEX54  BitVec[32]))
:extrafuns ((gtINDEX52  BitVec[32]))
:extrafuns ((gtINDEX50  BitVec[32]))
:extrafuns ((gtINDEX51  BitVec[32]))
:extrafuns ((gtINDEX48  BitVec[32]))
:extrafuns ((gtINDEX49  BitVec[32]))
:extrafuns ((gtINDEX46  BitVec[32]))
:extrafuns ((gtINDEX47  BitVec[32]))
:extrafuns ((gtINDEX44  BitVec[32]))
:extrafuns ((gtINDEX45  BitVec[32]))
:extrafuns ((gtINDEX42  BitVec[32]))
:extrafuns ((gtINDEX43  BitVec[32]))
:extrafuns ((gtINDEX40  BitVec[32]))
:extrafuns ((gtINDEX41  BitVec[32]))
:extrafuns ((gtINDEX38  BitVec[32]))
:extrafuns ((gtINDEX39  BitVec[32]))
:extrafuns ((gtINDEX36  BitVec[32]))
:extrafuns ((gtINDEX37  BitVec[32]))
:extrafuns ((gtINDEX34  BitVec[32]))
:extrafuns ((gtINDEX35  BitVec[32]))
:extrafuns ((gtINDEX32  BitVec[32]))
:extrafuns ((gtINDEX33  BitVec[32]))
:extrafuns ((gtINDEX31  BitVec[32]))
:extrafuns ((gtINDEX30  BitVec[32]))
:extrafuns ((gtINDEX29  BitVec[32]))
:extrafuns ((gtINDEX27  BitVec[32]))
:extrafuns ((gtINDEX28  BitVec[32]))
:extrafuns ((gtINDEX25  BitVec[32]))
:extrafuns ((gtINDEX26  BitVec[32]))
:extrafuns ((gtINDEX23  BitVec[32]))
:extrafuns ((gtINDEX24  BitVec[32]))
:extrafuns ((gtINDEX21  BitVec[32]))
:extrafuns ((gtINDEX22  BitVec[32]))
:extrafuns ((gtINDEX20  BitVec[32]))
:extrafuns ((gtINDEX18  BitVec[32]))
:extrafuns ((gtINDEX19  BitVec[32]))
:extrafuns ((gtINDEX16  BitVec[32]))
:extrafuns ((gtINDEX17  BitVec[32]))
:extrafuns ((gtINDEX14  BitVec[32]))
:extrafuns ((gtINDEX15  BitVec[32]))
:extrafuns ((gtINDEX12  BitVec[32]))
:extrafuns ((gtINDEX13  BitVec[32]))
:extrafuns ((gtINDEX10  BitVec[32]))
:extrafuns ((gtINDEX11  BitVec[32]))
:extrafuns ((gtINDEX8  BitVec[32]))
:extrafuns ((gtINDEX9  BitVec[32]))
:extrafuns ((gtINDEX6  BitVec[32]))
:extrafuns ((gtINDEX7  BitVec[32]))
:extrafuns ((gtINDEX4  BitVec[32]))
:extrafuns ((gtINDEX5  BitVec[32]))
:extrafuns ((gtINDEX2  BitVec[32]))
:extrafuns ((gtINDEX3  BitVec[32]))
:extrafuns ((gtINDEX0  BitVec[32]))
:extrafuns ((gtINDEX1  BitVec[32]))
:extrafuns ((gtFIELD__is_Eng__gtAGG____anonstruct_bitsForTID0_5_1_  Array[32:1]))
:extrafuns ((gtFIELD__is_Eng__gtAGG____anonstruct_bitsForTID0_5_2_  Array[32:1]))
:extrafuns ((sf_previousEvent_1_  BitVec[32]))
:extrafuns ((sfEvent__2_  BitVec[32]))
:extrafuns ((gtFIELD__is_Eng__gtAGG____anonstruct_bitsForTID0_5  Array[32:1]))
:extrafuns ((gtFIELD__sent__gtAGG____anonstruct_D_Work_4_1_  Array[32:32]))
:extrafuns ((gtFIELD__sent__gtAGG____anonstruct_D_Work_4_2_  Array[32:32]))
:extrafuns ((gtFIELD__is_active_Eng__gtAGG____anonstruct_bitsForTID0_5  Array[32:1]))
:extrafuns ((gtFIELD__is_active_PURI__gtAGG____anonstruct_bitsForTID0_5  Array[32:1]))
:extrafuns ((gtFIELD__is_active_PVRP__gtAGG____anonstruct_bitsForTID0_5  Array[32:1]))
:extrafuns ((gtFIELD__is_PPVARP__gtAGG____anonstruct_bitsForTID0_5  Array[32:2]))
:extrafuns ((gtFIELD__is_active_PPVARP__gtAGG____anonstruct_bitsForTID0_5  Array[32:1]))
:extrafuns ((gtFIELD__is_PLRI__gtAGG____anonstruct_bitsForTID0_5_1_  Array[32:2]))
:extrafuns ((gtFIELD__is_PLRI__gtAGG____anonstruct_bitsForTID0_5_2_  Array[32:2]))
:extrafuns ((gtFIELD__is_active_PLRI__gtAGG____anonstruct_bitsForTID0_5  Array[32:1]))
:extrafuns ((sfEvent__1_  BitVec[32]))
:extrafuns ((gtFIELD__is_PAVI__gtAGG____anonstruct_bitsForTID0_5  Array[32:3]))
:extrafuns ((gtFIELD__is_active_PAVI__gtAGG____anonstruct_bitsForTID0_5  Array[32:1]))
:extrafuns ((sfEvent_  BitVec[32]))
:extrafuns ((gtFIELD__sent__gtAGG____anonstruct_D_Work_4  Array[32:32]))
:extrafuns ((gtFIELD__is_PLRI__gtAGG____anonstruct_bitsForTID0_5  Array[32:2]))
:extrapreds ((constraint122 ))
:extrapreds ((constraint121 ))
:extrapreds ((constraint120 ))
:extrapreds ((constraint119 ))
:extrapreds ((constraint118 ))
:extrapreds ((constraint117 ))
:extrapreds ((constraint116 ))
:extrapreds ((constraint115 ))
:extrapreds ((constraint114 ))
:extrapreds ((constraint113 ))
:extrapreds ((constraint112 ))
:extrapreds ((constraint111 ))
:extrapreds ((constraint110 ))
:extrapreds ((constraint109 ))
:extrapreds ((constraint108 ))
:extrapreds ((constraint107 ))
:extrapreds ((constraint106 ))
:extrapreds ((constraint105 ))
:extrapreds ((constraint104 ))
:extrapreds ((constraint103 ))
:extrapreds ((constraint102 ))
:extrapreds ((constraint101 ))
:extrapreds ((constraint100 ))
:extrapreds ((constraint99 ))
:extrapreds ((constraint98 ))
:extrapreds ((constraint97 ))
:extrapreds ((constraint96 ))
:extrapreds ((constraint95 ))
:extrapreds ((constraint94 ))
:extrapreds ((constraint93 ))
:extrapreds ((constraint92 ))
:extrapreds ((constraint91 ))
:extrapreds ((constraint90 ))
:extrapreds ((constraint89 ))
:extrapreds ((constraint88 ))
:extrapreds ((constraint87 ))
:extrapreds ((constraint86 ))
:extrapreds ((constraint85 ))
:extrapreds ((constraint84 ))
:extrapreds ((constraint83 ))
:extrapreds ((constraint82 ))
:extrapreds ((constraint81 ))
:extrapreds ((constraint80 ))
:extrapreds ((constraint79 ))
:extrapreds ((constraint78 ))
:extrapreds ((constraint77 ))
:extrapreds ((constraint76 ))
:extrapreds ((constraint75 ))
:extrapreds ((constraint74 ))
:extrapreds ((constraint73 ))
:extrapreds ((constraint72 ))
:extrapreds ((constraint71 ))
:extrapreds ((constraint70 ))
:extrapreds ((constraint69 ))
:extrapreds ((constraint68 ))
:extrapreds ((constraint67 ))
:extrapreds ((constraint66 ))
:extrapreds ((constraint65 ))
:extrapreds ((constraint64 ))
:extrapreds ((constraint63 ))
:extrapreds ((constraint62 ))
:extrapreds ((constraint61 ))
:extrapreds ((constraint60 ))
:extrapreds ((constraint59 ))
:extrapreds ((constraint58 ))
:extrapreds ((constraint57 ))
:extrapreds ((constraint56 ))
:extrapreds ((constraint55 ))
:extrapreds ((constraint54 ))
:extrapreds ((constraint53 ))
:extrapreds ((constraint52 ))
:extrapreds ((constraint51 ))
:extrapreds ((constraint50 ))
:extrapreds ((constraint49 ))
:extrapreds ((constraint48 ))
:extrapreds ((constraint47 ))
:extrapreds ((constraint46 ))
:extrapreds ((constraint45 ))
:extrapreds ((constraint44 ))
:extrapreds ((constraint43 ))
:extrapreds ((constraint42 ))
:extrapreds ((constraint41 ))
:extrapreds ((constraint40 ))
:extrapreds ((constraint39 ))
:extrapreds ((constraint38 ))
:extrapreds ((constraint37 ))
:extrapreds ((constraint36 ))
:extrapreds ((constraint35 ))
:extrapreds ((constraint34 ))
:extrapreds ((constraint33 ))
:extrapreds ((constraint32 ))
:extrapreds ((constraint31 ))
:extrapreds ((constraint30 ))
:extrapreds ((constraint29 ))
:extrapreds ((constraint28 ))
:extrapreds ((constraint27 ))
:extrapreds ((constraint26 ))
:extrapreds ((constraint25 ))
:extrapreds ((constraint24 ))
:extrapreds ((constraint23 ))
:extrapreds ((constraint22 ))
:extrapreds ((constraint21 ))
:extrapreds ((constraint20 ))
:extrapreds ((constraint19 ))
:extrapreds ((constraint18 ))
:extrapreds ((constraint17 ))
:extrapreds ((constraint16 ))
:extrapreds ((constraint15 ))
:extrapreds ((constraint14 ))
:extrapreds ((constraint13 ))
:extrapreds ((constraint12 ))
:extrapreds ((constraint11 ))
:extrapreds ((constraint10 ))
:extrapreds ((constraint9 ))
:extrapreds ((constraint8 ))
:extrapreds ((constraint7 ))
:extrapreds ((constraint6 ))
:extrapreds ((constraint5 ))
:extrapreds ((constraint4 ))
:extrapreds ((constraint3 ))
:extrapreds ((constraint2 ))
:extrapreds ((constraint1 ))
:extrapreds ((constraint0 ))
:formula
(flet ($x636 (and constraint0 constraint1 constraint2 constraint3 constraint4 constraint5 constraint6 constraint7 constraint8 constraint9 constraint10 constraint11 constraint12 constraint13 constraint14 constraint15 constraint16 constraint17 constraint18 constraint19 constraint20 constraint21 constraint22 constraint23 constraint24 constraint25 constraint26 constraint27 constraint28 constraint29 constraint30 constraint31 constraint32 constraint33 constraint34 constraint35 constraint36 constraint37 constraint38 constraint39 constraint40 constraint41 constraint42 constraint43 constraint44 constraint45 constraint46 constraint47 constraint48 constraint49 constraint50 constraint51 constraint52 constraint53 constraint54 constraint55 constraint56 constraint57 constraint58 constraint59 constraint60 constraint61 constraint62 constraint63 constraint64 constraint65 constraint66 constraint67 constraint68 constraint69 constraint70 constraint71 constraint72 constraint73 constraint74 constraint75 constraint76 constraint77 constraint78 constraint79 constraint80 constraint81 constraint82 constraint83 constraint84 constraint85 constraint86 constraint87 constraint88 constraint89 constraint90 constraint91 constraint92 constraint93 constraint94 constraint95 constraint96 constraint97 constraint98 constraint99 constraint100 constraint101 constraint102 constraint103 constraint104 constraint105 constraint106 constraint107 constraint108 constraint109 constraint110 constraint111 constraint112 constraint113 constraint114 constraint115 constraint116 constraint117 constraint118 constraint119 constraint120 constraint121 constraint122))
(flet ($x388 (= gtINDEX72 (select gtFIELD__bitsForTID0__gtAGG____anonstruct_D_Work_4 gtINDEX71)))
(flet ($x384 (= gtINDEX70 (select gtFIELD__bitsForTID0__gtAGG____anonstruct_D_Work_4 gtINDEX69)))
(flet ($x380 (= gtINDEX68 (select gtFIELD__bitsForTID0__gtAGG____anonstruct_D_Work_4 gtINDEX67)))
(flet ($x376 (= gtINDEX66 (select gtFIELD__bitsForTID0__gtAGG____anonstruct_D_Work_4 gtINDEX65)))
(flet ($x368 (= gtINDEX60 (select gtFIELD__bitsForTID0__gtAGG____anonstruct_D_Work_4 gtINDEX59)))
(flet ($x364 (= gtINDEX58 (select gtFIELD__bitsForTID0__gtAGG____anonstruct_D_Work_4 gtINDEX57)))
(flet ($x360 (= gtINDEX56 (select gtFIELD__bitsForTID0__gtAGG____anonstruct_D_Work_4 gtINDEX55)))
(flet ($x356 (= gtINDEX54 (select gtFIELD__bitsForTID0__gtAGG____anonstruct_D_Work_4 gtINDEX53)))
(flet ($x351 (= gtINDEX51 (select gtFIELD__bitsForTID0__gtAGG____anonstruct_D_Work_4 gtINDEX50)))
(flet ($x347 (= gtINDEX49 (select gtFIELD__bitsForTID0__gtAGG____anonstruct_D_Work_4 gtINDEX48)))
(flet ($x343 (= gtINDEX47 (select gtFIELD__bitsForTID0__gtAGG____anonstruct_D_Work_4 gtINDEX46)))
(flet ($x339 (= gtINDEX45 (select gtFIELD__bitsForTID0__gtAGG____anonstruct_D_Work_4 gtINDEX44)))
(flet ($x335 (= gtINDEX43 (select gtFIELD__bitsForTID0__gtAGG____anonstruct_D_Work_4 gtINDEX42)))
(flet ($x331 (= gtINDEX41 (select gtFIELD__bitsForTID0__gtAGG____anonstruct_D_Work_4 gtINDEX40)))
(flet ($x327 (= gtINDEX39 (select gtFIELD__bitsForTID0__gtAGG____anonstruct_D_Work_4 gtINDEX38)))
(flet ($x323 (= gtINDEX37 (select gtFIELD__bitsForTID0__gtAGG____anonstruct_D_Work_4 gtINDEX36)))
(flet ($x319 (= gtINDEX35 (select gtFIELD__bitsForTID0__gtAGG____anonstruct_D_Work_4 gtINDEX34)))
(flet ($x315 (= gtINDEX33 (select gtFIELD__bitsForTID0__gtAGG____anonstruct_D_Work_4 gtINDEX32)))
(flet ($x308 (= gtINDEX28 (select gtFIELD__bitsForTID0__gtAGG____anonstruct_D_Work_4 gtINDEX27)))
(flet ($x304 (= gtINDEX26 (select gtFIELD__bitsForTID0__gtAGG____anonstruct_D_Work_4 gtINDEX25)))
(flet ($x300 (= gtINDEX24 (select gtFIELD__bitsForTID0__gtAGG____anonstruct_D_Work_4 gtINDEX23)))
(flet ($x296 (= gtINDEX22 (select gtFIELD__bitsForTID0__gtAGG____anonstruct_D_Work_4 gtINDEX21)))
(flet ($x291 (= gtINDEX19 (select gtFIELD__bitsForTID0__gtAGG____anonstruct_D_Work_4 gtINDEX18)))
(flet ($x287 (= gtINDEX17 (select gtFIELD__bitsForTID0__gtAGG____anonstruct_D_Work_4 gtINDEX16)))
(flet ($x283 (= gtINDEX15 (select gtFIELD__bitsForTID0__gtAGG____anonstruct_D_Work_4 gtINDEX14)))
(flet ($x279 (= gtINDEX13 (select gtFIELD__bitsForTID0__gtAGG____anonstruct_D_Work_4 gtINDEX12)))
(flet ($x275 (= gtINDEX11 (select gtFIELD__bitsForTID0__gtAGG____anonstruct_D_Work_4 gtINDEX10)))
(flet ($x271 (= gtINDEX9 (select gtFIELD__bitsForTID0__gtAGG____anonstruct_D_Work_4 gtINDEX8)))
(flet ($x267 (= gtINDEX7 (select gtFIELD__bitsForTID0__gtAGG____anonstruct_D_Work_4 gtINDEX6)))
(flet ($x263 (= gtINDEX5 (select gtFIELD__bitsForTID0__gtAGG____anonstruct_D_Work_4 gtINDEX4)))
(flet ($x259 (= gtINDEX3 (select gtFIELD__bitsForTID0__gtAGG____anonstruct_D_Work_4 gtINDEX2)))
(flet ($x255 (= gtINDEX1 (select gtFIELD__bitsForTID0__gtAGG____anonstruct_D_Work_4 gtINDEX0)))
(let (?x239 (extract[0:0] bv1[32]))
(let (?x249 (store gtFIELD__is_Eng__gtAGG____anonstruct_bitsForTID0_5_1_ gtINDEX72 ?x239))
(flet ($x488 (iff constraint49 (= gtFIELD__is_Eng__gtAGG____anonstruct_bitsForTID0_5_2_ ?x249)))
(let (?x245 (select gtFIELD__is_Eng__gtAGG____anonstruct_bitsForTID0_5_1_ gtINDEX70))
(let (?x240 (store gtFIELD__is_Eng__gtAGG____anonstruct_bitsForTID0_5 gtINDEX68 ?x239))
(flet ($x482 (iff constraint46 (= gtFIELD__is_Eng__gtAGG____anonstruct_bitsForTID0_5_1_ ?x240)))
(let (?x236 (zero_extend[31] (select gtFIELD__is_Eng__gtAGG____anonstruct_bitsForTID0_5 gtINDEX66)))
(let (?x232 (store gtFIELD__sent__gtAGG____anonstruct_D_Work_4_1_ gtINDEX64 bv0[32]))
(flet ($x478 (iff constraint44 (= gtFIELD__sent__gtAGG____anonstruct_D_Work_4_2_ ?x232)))
(let (?x135 (bvmul bv4294967295[32] bv1[32]))
(flet ($x230 (= (select gtFIELD__sent__gtAGG____anonstruct_D_Work_4_1_ gtINDEX63) ?x135))
(flet ($x226 (= (select gtFIELD__sent__gtAGG____anonstruct_D_Work_4_1_ gtINDEX62) bv9[32]))
(flet ($x222 (= (select gtFIELD__sent__gtAGG____anonstruct_D_Work_4_1_ gtINDEX61) bv4[32]))
(let (?x218 (zero_extend[31] (select gtFIELD__is_Eng__gtAGG____anonstruct_bitsForTID0_5 gtINDEX60)))
(let (?x212 (select gtFIELD__is_active_Eng__gtAGG____anonstruct_bitsForTID0_5 gtINDEX58))
(let (?x206 (select gtFIELD__is_active_PURI__gtAGG____anonstruct_bitsForTID0_5 gtINDEX56))
(let (?x200 (select gtFIELD__is_active_PVRP__gtAGG____anonstruct_bitsForTID0_5 gtINDEX54))
(flet ($x197 (= (select gtFIELD__sent__gtAGG____anonstruct_D_Work_4_1_ gtINDEX52) bv0[32]))
(let (?x192 (select gtFIELD__is_PPVARP__gtAGG____anonstruct_bitsForTID0_5 gtINDEX51))
(let (?x187 (select gtFIELD__is_PPVARP__gtAGG____anonstruct_bitsForTID0_5 gtINDEX49))
(let (?x182 (select gtFIELD__is_PPVARP__gtAGG____anonstruct_bitsForTID0_5 gtINDEX47))
(let (?x177 (select gtFIELD__is_active_PPVARP__gtAGG____anonstruct_bitsForTID0_5 gtINDEX45))
(let (?x77 (extract[1:0] bv0[32]))
(let (?x174 (store gtFIELD__is_PLRI__gtAGG____anonstruct_bitsForTID0_5_1_ gtINDEX43 ?x77))
(flet ($x452 (iff constraint31 (= gtFIELD__is_PLRI__gtAGG____anonstruct_bitsForTID0_5_2_ ?x174)))
(let (?x169 (select gtFIELD__is_PLRI__gtAGG____anonstruct_bitsForTID0_5_1_ gtINDEX41))
(let (?x164 (select gtFIELD__is_PLRI__gtAGG____anonstruct_bitsForTID0_5_1_ gtINDEX39))
(let (?x159 (select gtFIELD__is_active_PLRI__gtAGG____anonstruct_bitsForTID0_5 gtINDEX37))
(let (?x151 (select gtFIELD__is_PAVI__gtAGG____anonstruct_bitsForTID0_5 gtINDEX35))
(let (?x146 (select gtFIELD__is_active_PAVI__gtAGG____anonstruct_bitsForTID0_5 gtINDEX33))
(flet ($x137 (= gtFIELD__sent__gtAGG____anonstruct_D_Work_4_1_ (store gtFIELD__sent__gtAGG____anonstruct_D_Work_4 gtINDEX31 ?x135)))
(flet ($x132 (= (select gtFIELD__sent__gtAGG____anonstruct_D_Work_4 gtINDEX30) bv9[32]))
(flet ($x127 (= (select gtFIELD__sent__gtAGG____anonstruct_D_Work_4 gtINDEX29) bv4[32]))
(let (?x122 (zero_extend[31] (select gtFIELD__is_Eng__gtAGG____anonstruct_bitsForTID0_5 gtINDEX28)))
(let (?x116 (select gtFIELD__is_active_Eng__gtAGG____anonstruct_bitsForTID0_5 gtINDEX26))
(let (?x110 (select gtFIELD__is_active_PURI__gtAGG____anonstruct_bitsForTID0_5 gtINDEX24))
(let (?x104 (select gtFIELD__is_active_PVRP__gtAGG____anonstruct_bitsForTID0_5 gtINDEX22))
(flet ($x101 (= (select gtFIELD__sent__gtAGG____anonstruct_D_Work_4 gtINDEX20) bv0[32]))
(let (?x96 (select gtFIELD__is_PPVARP__gtAGG____anonstruct_bitsForTID0_5 gtINDEX19))
(let (?x91 (select gtFIELD__is_PPVARP__gtAGG____anonstruct_bitsForTID0_5 gtINDEX17))
(let (?x86 (select gtFIELD__is_PPVARP__gtAGG____anonstruct_bitsForTID0_5 gtINDEX15))
(let (?x81 (select gtFIELD__is_active_PPVARP__gtAGG____anonstruct_bitsForTID0_5 gtINDEX13))
(let (?x78 (store gtFIELD__is_PLRI__gtAGG____anonstruct_bitsForTID0_5 gtINDEX11 ?x77))
(flet ($x406 (iff constraint8 (= gtFIELD__is_PLRI__gtAGG____anonstruct_bitsForTID0_5_1_ ?x78)))
(let (?x73 (zero_extend[30] (select gtFIELD__is_PLRI__gtAGG____anonstruct_bitsForTID0_5 gtINDEX9)))
(let (?x68 (zero_extend[30] (select gtFIELD__is_PLRI__gtAGG____anonstruct_bitsForTID0_5 gtINDEX7)))
(let (?x62 (select gtFIELD__is_active_PLRI__gtAGG____anonstruct_bitsForTID0_5 gtINDEX5))
(let (?x52 (zero_extend[29] (select gtFIELD__is_PAVI__gtAGG____anonstruct_bitsForTID0_5 gtINDEX3)))
(let (?x45 (select gtFIELD__is_active_PAVI__gtAGG____anonstruct_bitsForTID0_5 gtINDEX1))
(flet ($x635 (and (iff constraint0 (not (= sfEvent_ bv8[32]))) (iff constraint1 (not (= (zero_extend[31] ?x45) bv0[32]))) (iff constraint2 (= ?x52 bv1[32])) (iff constraint3 (not (= sfEvent_ bv2[32]))) (iff constraint4 (not (= sfEvent_ bv3[32]))) (iff constraint5 (not (= (zero_extend[31] ?x62) bv0[32]))) (iff constraint6 (not (= ?x68 bv1[32]))) (iff constraint7 (not (= ?x73 bv2[32]))) $x406 (iff constraint9 (not (= (zero_extend[31] ?x81) bv0[32]))) (iff constraint10 (not (= (zero_extend[30] ?x86) bv1[32]))) (iff constraint11 (not (= (zero_extend[30] ?x91) bv2[32]))) (iff constraint12 (= (zero_extend[30] ?x96) bv3[32])) (iff constraint13 (not $x101)) (iff constraint14 (not (not (= (zero_extend[31] ?x104) bv0[32])))) (iff constraint15 (not (not (= (zero_extend[31] ?x110) bv0[32])))) (iff constraint16 (not (= (zero_extend[31] ?x116) bv0[32]))) (iff constraint17 (= ?x122 bv1[32])) (iff constraint18 (not $x127)) (iff constraint19 $x132) (iff constraint20 $x137) (iff constraint21 (= sf_previousEvent_1_ sfEvent_)) (iff constraint22 (= sfEvent__1_ bv6[32])) (iff constraint23 (not (= sfEvent__1_ bv8[32]))) (iff constraint24 (not (= (zero_extend[31] ?x146) bv0[32]))) (iff constraint25 (= (zero_extend[29] ?x151) bv1[32])) (iff constraint26 (not (= sfEvent__1_ bv2[32]))) (iff constraint27 (not (= sfEvent__1_ bv3[32]))) (iff constraint28 (not (= (zero_extend[31] ?x159) bv0[32]))) (iff constraint29 (not (= (zero_extend[30] ?x164) bv1[32]))) (iff constraint30 (not (= (zero_extend[30] ?x169) bv2[32]))) $x452 (iff constraint32 (not (= (zero_extend[31] ?x177) bv0[32]))) (iff constraint33 (not (= (zero_extend[30] ?x182) bv1[32]))) (iff constraint34 (not (= (zero_extend[30] ?x187) bv2[32]))) (iff constraint35 (= (zero_extend[30] ?x192) bv3[32])) (iff constraint36 (not $x197)) (iff constraint37 (not (not (= (zero_extend[31] ?x200) bv0[32])))) (iff constraint38 (not (not (= (zero_extend[31] ?x206) bv0[32])))) (iff constraint39 (not (= (zero_extend[31] ?x212) bv0[32]))) (iff constraint40 (= ?x218 bv1[32])) (iff constraint41 (not $x222)) (iff constraint42 (not $x226)) (iff constraint43 $x230) $x478 (iff constraint45 (= ?x236 bv1[32])) $x482 (iff constraint47 (= sfEvent__2_ sf_previousEvent_1_)) (iff constraint48 (= (zero_extend[31] ?x245) bv1[32])) $x488 (iff constraint50 (= gtINDEX0 gtAGG__rtDWork)) (iff constraint51 $x255) (iff constraint52 (= gtINDEX2 gtAGG__rtDWork)) (iff constraint53 $x259) (iff constraint54 (= gtINDEX4 gtAGG__rtDWork)) (iff constraint55 $x263) (iff constraint56 (= gtINDEX6 gtAGG__rtDWork)) (iff constraint57 $x267) (iff constraint58 (= gtINDEX8 gtAGG__rtDWork)) (iff constraint59 $x271) (iff constraint60 (= gtINDEX10 gtAGG__rtDWork)) (iff constraint61 $x275) (iff constraint62 (= gtINDEX12 gtAGG__rtDWork)) (iff constraint63 $x279) (iff constraint64 (= gtINDEX14 gtAGG__rtDWork)) (iff constraint65 $x283) (iff constraint66 (= gtINDEX16 gtAGG__rtDWork)) (iff constraint67 $x287) (iff constraint68 (= gtINDEX18 gtAGG__rtDWork)) (iff constraint69 $x291) (iff constraint70 (= gtINDEX20 gtAGG__rtDWork)) (iff constraint71 (= gtINDEX21 gtAGG__rtDWork)) (iff constraint72 $x296) (iff constraint73 (= gtINDEX23 gtAGG__rtDWork)) (iff constraint74 $x300) (iff constraint75 (= gtINDEX25 gtAGG__rtDWork)) (iff constraint76 $x304) (iff constraint77 (= gtINDEX27 gtAGG__rtDWork)) (iff constraint78 $x308) (iff constraint79 (= gtINDEX29 gtAGG__rtDWork)) (iff constraint80 (= gtINDEX30 gtAGG__rtDWork)) (iff constraint81 (= gtINDEX31 gtAGG__rtDWork)) (iff constraint82 (= gtINDEX32 gtAGG__rtDWork)) (iff constraint83 $x315) (iff constraint84 (= gtINDEX34 gtAGG__rtDWork)) (iff constraint85 $x319) (iff constraint86 (= gtINDEX36 gtAGG__rtDWork)) (iff constraint87 $x323) (iff constraint88 (= gtINDEX38 gtAGG__rtDWork)) (iff constraint89 $x327) (iff constraint90 (= gtINDEX40 gtAGG__rtDWork)) (iff constraint91 $x331) (iff constraint92 (= gtINDEX42 gtAGG__rtDWork)) (iff constraint93 $x335) (iff constraint94 (= gtINDEX44 gtAGG__rtDWork)) (iff constraint95 $x339) (iff constraint96 (= gtINDEX46 gtAGG__rtDWork)) (iff constraint97 $x343) (iff constraint98 (= gtINDEX48 gtAGG__rtDWork)) (iff constraint99 $x347) (iff constraint100 (= gtINDEX50 gtAGG__rtDWork)) (iff constraint101 $x351) (iff constraint102 (= gtINDEX52 gtAGG__rtDWork)) (iff constraint103 (= gtINDEX53 gtAGG__rtDWork)) (iff constraint104 $x356) (iff constraint105 (= gtINDEX55 gtAGG__rtDWork)) (iff constraint106 $x360) (iff constraint107 (= gtINDEX57 gtAGG__rtDWork)) (iff constraint108 $x364) (iff constraint109 (= gtINDEX59 gtAGG__rtDWork)) (iff constraint110 $x368) (iff constraint111 (= gtINDEX61 gtAGG__rtDWork)) (iff constraint112 (= gtINDEX62 gtAGG__rtDWork)) (iff constraint113 (= gtINDEX63 gtAGG__rtDWork)) (iff constraint114 (= gtINDEX64 gtAGG__rtDWork)) (iff constraint115 (= gtINDEX65 gtAGG__rtDWork)) (iff constraint116 $x376) (iff constraint117 (= gtINDEX67 gtAGG__rtDWork)) (iff constraint118 $x380) (iff constraint119 (= gtINDEX69 gtAGG__rtDWork)) (iff constraint120 $x384) (iff constraint121 (= gtINDEX71 gtAGG__rtDWork)) (iff constraint122 $x388)))
(and $x635 $x636))))))))))))))))))))))))))))))))))))))))))))))))))))))))))))))))))))))))))))))))))))
)
